p cnf 3462 919
-3115 3281 0
-3281 3115 0
-3283 -3284 0
-3117 3283 0
-3118 3284 0
-3283 3117 0
-3284 3118 0
-3286 -3287 0
-3120 3286 0
-3121 3287 0
-3286 3120 0
-3287 3121 0
-3289 -3290 0
-3289 -3291 0
-3290 -3291 0
-3123 3289 0
-3124 3290 0
-3125 3291 0
-3289 3123 0
-3290 3124 0
-3291 3125 0
-3293 -3294 0
-3127 3293 0
-3128 3294 0
-3293 3127 0
-3294 3128 0
-3296 -3297 0
-3296 -3298 0
-3297 -3298 0
-3130 3296 0
-3131 3297 0
-3132 3298 0
-3296 3130 0
-3297 3131 0
-3298 3132 0
-3300 -3301 0
-3134 3300 0
-3135 3301 0
-3300 3134 0
-3301 3135 0
-3303 -3304 0
-3303 -3305 0
-3304 -3305 0
-3137 3303 0
-3138 3304 0
-3139 3305 0
-3303 3137 0
-3304 3138 0
-3305 3139 0
-3307 -3308 0
-3141 3307 0
-3142 3308 0
-3307 3141 0
-3308 3142 0
-3310 -3311 0
-3310 -3312 0
-3311 -3312 0
-3144 3310 0
-3145 3311 0
-3146 3312 0
-3310 3144 0
-3311 3145 0
-3312 3146 0
-3314 -3315 0
-3148 3314 0
-3149 3315 0
-3314 3148 0
-3315 3149 0
-3317 -3318 0
-3317 -3319 0
-3318 -3319 0
-3151 3317 0
-3152 3318 0
-3153 3319 0
-3317 3151 0
-3318 3152 0
-3319 3153 0
-3321 -3322 0
-3155 3321 0
-3156 3322 0
-3321 3155 0
-3322 3156 0
-3324 -3325 0
-3324 -3326 0
-3325 -3326 0
-3158 3324 0
-3159 3325 0
-3160 3326 0
-3324 3158 0
-3325 3159 0
-3326 3160 0
-3328 -3329 0
-3162 3328 0
-3163 3329 0
-3328 3162 0
-3329 3163 0
-3331 -3332 0
-3331 -3333 0
-3332 -3333 0
-3165 3331 0
-3166 3332 0
-3167 3333 0
-3331 3165 0
-3332 3166 0
-3333 3167 0
-3335 -3336 0
-3169 3335 0
-3170 3336 0
-3335 3169 0
-3336 3170 0
-3338 -3339 0
-3338 -3340 0
-3339 -3340 0
-3172 3338 0
-3173 3339 0
-3174 3340 0
-3338 3172 0
-3339 3173 0
-3340 3174 0
-3342 -3343 0
-3176 3342 0
-3177 3343 0
-3342 3176 0
-3343 3177 0
-3345 -3346 0
-3345 -3347 0
-3346 -3347 0
-3179 3345 0
-3180 3346 0
-3181 3347 0
-3345 3179 0
-3346 3180 0
-3347 3181 0
-3349 -3350 0
-3183 3349 0
-3184 3350 0
-3349 3183 0
-3350 3184 0
-3352 -3353 0
-3352 -3354 0
-3353 -3354 0
-3186 3352 0
-3187 3353 0
-3188 3354 0
-3352 3186 0
-3353 3187 0
-3354 3188 0
-3356 -3357 0
-3190 3356 0
-3191 3357 0
-3356 3190 0
-3357 3191 0
-3359 -3360 0
-3359 -3361 0
-3360 -3361 0
-3193 3359 0
-3194 3361 0
-3195 3361 0
-3196 3360 0
-3359 3193 0
-3360 3196 0
-3361 3194 3195 0
-3363 3369 3370 3371 3372 3373 0
-3369 -3370 0
-3369 -3371 0
-3369 -3372 0
-3369 -3373 0
-3370 -3371 0
-3370 -3372 0
-3370 -3373 0
-3371 -3372 0
-3371 -3373 0
-3372 -3373 0
-3363 3374 3375 3376 3377 3378 3379 3380 0
-3374 -3375 0
-3374 -3376 0
-3374 -3377 0
-3374 -3378 0
-3374 -3379 0
-3374 -3380 0
-3375 -3376 0
-3375 -3377 0
-3375 -3378 0
-3375 -3379 0
-3375 -3380 0
-3376 -3377 0
-3376 -3378 0
-3376 -3379 0
-3376 -3380 0
-3377 -3378 0
-3377 -3379 0
-3377 -3380 0
-3378 -3379 0
-3378 -3380 0
-3379 -3380 0
-3363 3381 3382 3383 3384 3385 3386 3387 3388 0
-3381 -3382 0
-3381 -3383 0
-3381 -3384 0
-3381 -3385 0
-3381 -3386 0
-3381 -3387 0
-3381 -3388 0
-3382 -3383 0
-3382 -3384 0
-3382 -3385 0
-3382 -3386 0
-3382 -3387 0
-3382 -3388 0
-3383 -3384 0
-3383 -3385 0
-3383 -3386 0
-3383 -3387 0
-3383 -3388 0
-3384 -3385 0
-3384 -3386 0
-3384 -3387 0
-3384 -3388 0
-3385 -3386 0
-3385 -3387 0
-3385 -3388 0
-3386 -3387 0
-3386 -3388 0
-3387 -3388 0
-3363 3366 0
-3363 3367 0
-3363 3368 0
-3363 -3364 0
-3382 -3366 3242 0
-3387 -3366 3234 0
-3388 -3366 3249 0
-3383 -3366 3228 0
-3386 -3366 3253 0
-3384 -3366 3237 0
-3385 -3366 3246 0
-3381 -3366 3263 0
-3372 -3374 -3367 3241 0
-3372 -3379 -3367 3248 0
-3372 -3375 -3367 3226 0
-3370 -3378 -3367 3227 0
-3372 -3380 -3367 3229 0
-3369 -3375 -3367 3230 0
-3371 -3375 -3367 3244 0
-3373 -3378 -3367 3259 0
-3371 -3380 -3367 3231 0
-3372 -3377 -3367 3233 0
-3371 -3378 -3367 3252 0
-3369 -3378 -3367 3245 0
-3373 -3379 -3367 3235 0
-3373 -3375 -3367 3260 0
-3369 -3379 -3367 3261 0
-3372 -3376 -3367 3254 0
-3370 -3375 -3367 3255 0
-3373 -3374 -3367 3238 0
-3373 -3376 -3367 3256 0
-3370 -3380 -3367 3247 0
-3373 -3380 -3367 3240 0
-3372 -3378 -3367 3257 0
-3369 -3380 -3367 3264 0
-3370 -3376 -3367 3265 0
-3369 -3376 -3367 3266 0
-3369 -3368 3068 0
-3373 -3368 3045 0
-3370 -3368 3046 0
-3371 -3368 3061 0
-3372 -3368 3076 0
-3363 -3371 -3376 0
-3363 -3371 -3379 0
-3363 -3371 -3374 0
-3363 -3371 -3377 0
-3363 -3373 -3377 0
-3363 -3370 -3379 0
-3363 -3370 -3374 0
-3363 -3370 -3377 0
-3363 -3369 -3374 0
-3363 -3369 -3377 0
-3363 -3372 -3387 0
-3363 -3371 -3381 0
-3363 -3371 -3386 0
-3363 -3371 -3387 0
-3363 -3371 -3384 0
-3363 -3371 -3383 0
-3363 -3373 -3387 0
-3363 -3373 -3384 0
-3363 -3370 -3381 0
-3363 -3370 -3386 0
-3363 -3370 -3387 0
-3363 -3370 -3384 0
-3363 -3369 -3381 0
-3363 -3369 -3387 0
-3363 -3369 -3384 0
-3224 3363 0
-3223 3364 0
-3363 3224 0
-3364 3223 0
-3389 3393 0
-3392 3393 0
-3390 -3393 0
-3391 -3393 0
-3045 3394 -3363 3373 0
-3045 3394 3363 0
3045 -3394 -3363 3377 0
3045 -3394 3363 0
-3046 3395 -3363 3370 0
-3046 3395 3363 0
3046 -3395 -3363 3379 0
3046 -3395 3363 0
-3226 3396 -3363 -3372 3375 0
-3226 3396 -3363 3372 0
-3226 3396 3363 0
3226 -3396 -3363 -3372 3382 0
3226 -3396 -3363 3372 0
3226 -3396 3363 0
-3227 3397 -3363 -3370 3378 0
-3227 3397 -3363 3370 0
-3227 3397 3363 0
3227 -3397 -3363 -3370 3385 0
3227 -3397 -3363 3370 0
3227 -3397 3363 0
-3228 3398 -3363 3383 0
-3228 3398 3363 0
3228 -3398 -3363 3371 0
3228 -3398 3363 0
-3229 3399 -3363 -3372 3380 0
-3229 3399 -3363 3372 0
-3229 3399 3363 0
3229 -3399 -3363 -3372 3388 0
3229 -3399 -3363 3372 0
3229 -3399 3363 0
-3230 3400 -3363 -3369 3375 0
-3230 3400 -3363 3369 0
-3230 3400 3363 0
3230 -3400 -3363 -3369 3382 0
3230 -3400 -3363 3369 0
3230 -3400 3363 0
-3051 3401 0
3051 -3401 -3363 3380 0
3051 -3401 3363 0
-3231 3402 -3363 -3371 3380 0
-3231 3402 -3363 3371 0
-3231 3402 3363 0
3231 -3402 -3363 -3371 3388 0
3231 -3402 -3363 3371 0
3231 -3402 3363 0
-3233 3403 -3363 -3372 3377 0
-3233 3403 -3363 3372 0
-3233 3403 3363 0
3233 -3403 -3363 -3372 3384 0
3233 -3403 -3363 3372 0
3233 -3403 3363 0
-3234 3404 -3363 3387 0
-3234 3404 3363 0
3234 -3404 -3363 3372 0
3234 -3404 3363 0
-3235 3405 -3363 -3373 3379 0
-3235 3405 -3363 3373 0
-3235 3405 3363 0
3235 -3405 -3363 -3373 3386 0
3235 -3405 -3363 3373 0
3235 -3405 3363 0
-3237 3406 -3363 3384 0
-3237 3406 3363 0
3237 -3406 -3363 3373 0
3237 -3406 3363 0
-3238 3407 -3363 -3373 3374 0
-3238 3407 -3363 3373 0
-3238 3407 3363 0
3238 -3407 -3363 -3373 3381 0
3238 -3407 -3363 3373 0
3238 -3407 3363 0
-3240 3408 -3363 -3373 3380 0
-3240 3408 -3363 3373 0
-3240 3408 3363 0
3240 -3408 -3363 -3373 3388 0
3240 -3408 -3363 3373 0
3240 -3408 3363 0
-3241 3409 -3363 -3372 3374 0
-3241 3409 -3363 3372 0
-3241 3409 3363 0
3241 -3409 -3363 -3372 3381 0
3241 -3409 -3363 3372 0
3241 -3409 3363 0
-3242 3410 -3363 3382 0
-3242 3410 3363 0
3242 -3410 0
-3061 3411 -3363 3371 0
-3061 3411 3363 0
3061 -3411 -3363 3376 0
3061 -3411 3363 0
-3244 3412 -3363 -3371 3375 0
-3244 3412 -3363 3371 0
-3244 3412 3363 0
3244 -3412 -3363 -3371 3382 0
3244 -3412 -3363 3371 0
3244 -3412 3363 0
-3245 3413 -3363 -3369 3378 0
-3245 3413 -3363 3369 0
-3245 3413 3363 0
3245 -3413 -3363 -3369 3385 0
3245 -3413 -3363 3369 0
3245 -3413 3363 0
-3065 3414 0
3065 -3414 -3363 3375 0
3065 -3414 3363 0
-3246 3415 -3363 3385 0
-3246 3415 3363 0
3246 -3415 0
-3247 3416 -3363 -3370 3380 0
-3247 3416 -3363 3370 0
-3247 3416 3363 0
3247 -3416 -3363 -3370 3388 0
3247 -3416 -3363 3370 0
3247 -3416 3363 0
-3248 3417 -3363 -3372 3379 0
-3248 3417 -3363 3372 0
-3248 3417 3363 0
3248 -3417 -3363 -3372 3386 0
3248 -3417 -3363 3372 0
3248 -3417 3363 0
-3249 3418 -3363 3388 0
-3249 3418 3363 0
3249 -3418 0
-3068 3419 -3363 3369 0
-3068 3419 3363 0
3068 -3419 -3363 3374 0
3068 -3419 3363 0
-3070 3420 0
3070 -3420 -3363 3378 0
3070 -3420 3363 0
-3252 3421 -3363 -3371 3378 0
-3252 3421 -3363 3371 0
-3252 3421 3363 0
3252 -3421 -3363 -3371 3385 0
3252 -3421 -3363 3371 0
3252 -3421 3363 0
-3253 3422 -3363 3386 0
-3253 3422 3363 0
3253 -3422 -3363 3370 0
3253 -3422 3363 0
-3254 3423 -3363 -3372 3376 0
-3254 3423 -3363 3372 0
-3254 3423 3363 0
3254 -3423 -3363 -3372 3383 0
3254 -3423 -3363 3372 0
3254 -3423 3363 0
-3255 3424 -3363 -3370 3375 0
-3255 3424 -3363 3370 0
-3255 3424 3363 0
3255 -3424 -3363 -3370 3382 0
3255 -3424 -3363 3370 0
3255 -3424 3363 0
-3256 3425 -3363 -3373 3376 0
-3256 3425 -3363 3373 0
-3256 3425 3363 0
3256 -3425 -3363 -3373 3383 0
3256 -3425 -3363 3373 0
3256 -3425 3363 0
-3076 3426 -3363 3372 0
-3076 3426 3363 0
3076 -3426 0
-3257 3427 -3363 -3372 3378 0
-3257 3427 -3363 3372 0
-3257 3427 3363 0
3257 -3427 -3363 -3372 3385 0
3257 -3427 -3363 3372 0
3257 -3427 3363 0
-3259 3428 -3363 -3373 3378 0
-3259 3428 -3363 3373 0
-3259 3428 3363 0
3259 -3428 -3363 -3373 3385 0
3259 -3428 -3363 3373 0
3259 -3428 3363 0
-3260 3429 -3363 -3373 3375 0
-3260 3429 -3363 3373 0
-3260 3429 3363 0
3260 -3429 -3363 -3373 3382 0
3260 -3429 -3363 3373 0
3260 -3429 3363 0
-3261 3430 -3363 -3369 3379 0
-3261 3430 -3363 3369 0
-3261 3430 3363 0
3261 -3430 -3363 -3369 3386 0
3261 -3430 -3363 3369 0
3261 -3430 3363 0
-3263 3431 -3363 3381 0
-3263 3431 3363 0
3263 -3431 -3363 3369 0
3263 -3431 3363 0
-3264 3432 -3363 -3369 3380 0
-3264 3432 -3363 3369 0
-3264 3432 3363 0
3264 -3432 -3363 -3369 3388 0
3264 -3432 -3363 3369 0
3264 -3432 3363 0
-3265 3433 -3363 -3370 3376 0
-3265 3433 -3363 3370 0
-3265 3433 3363 0
3265 -3433 -3363 -3370 3383 0
3265 -3433 -3363 3370 0
3265 -3433 3363 0
-3266 3434 -3363 -3369 3376 0
-3266 3434 -3363 3369 0
-3266 3434 3363 0
3266 -3434 -3363 -3369 3383 0
3266 -3434 -3363 3369 0
3266 -3434 3363 0
-3390 3445 3446 3447 3448 3449 3450 3451 3452 0
-3445 -3446 0
-3445 -3447 0
-3445 -3448 0
-3445 -3449 0
-3445 -3450 0
-3445 -3451 0
-3445 -3452 0
-3446 -3447 0
-3446 -3448 0
-3446 -3449 0
-3446 -3450 0
-3446 -3451 0
-3446 -3452 0
-3447 -3448 0
-3447 -3449 0
-3447 -3450 0
-3447 -3451 0
-3447 -3452 0
-3448 -3449 0
-3448 -3450 0
-3448 -3451 0
-3448 -3452 0
-3449 -3450 0
-3449 -3451 0
-3449 -3452 0
-3450 -3451 0
-3450 -3452 0
-3451 -3452 0
-3390 3453 3454 3455 3456 3457 0
-3453 -3454 0
-3453 -3455 0
-3453 -3456 0
-3453 -3457 0
-3454 -3455 0
-3454 -3456 0
-3454 -3457 0
-3455 -3456 0
-3455 -3457 0
-3456 -3457 0
-3390 3438 0
-3390 3441 0
-3391 3453 3454 3455 3456 3457 0
-3453 -3454 0
-3453 -3455 0
-3453 -3456 0
-3453 -3457 0
-3454 -3455 0
-3454 -3456 0
-3454 -3457 0
-3455 -3456 0
-3455 -3457 0
-3456 -3457 0
-3391 3445 3446 3447 3448 3449 3450 3451 3452 0
-3445 -3446 0
-3445 -3447 0
-3445 -3448 0
-3445 -3449 0
-3445 -3450 0
-3445 -3451 0
-3445 -3452 0
-3446 -3447 0
-3446 -3448 0
-3446 -3449 0
-3446 -3450 0
-3446 -3451 0
-3446 -3452 0
-3447 -3448 0
-3447 -3449 0
-3447 -3450 0
-3447 -3451 0
-3447 -3452 0
-3448 -3449 0
-3448 -3450 0
-3448 -3451 0
-3448 -3452 0
-3449 -3450 0
-3449 -3451 0
-3449 -3452 0
-3450 -3451 0
-3450 -3452 0
-3451 -3452 0
-3391 3435 0
-3391 3444 0
-3392 3401 0
-3392 3243 0
-3389 -3390 0
-3389 -3391 0
-3389 -3392 0
-3390 -3391 0
-3390 -3392 0
-3391 -3392 0
-3445 -3435 3251 0
-3450 -3435 3236 0
-3446 -3435 3262 0
-3451 -3435 3239 0
-3449 -3435 3243 0
-3448 -3435 3258 0
-3447 -3435 3250 0
-3452 -3435 3232 0
-3382 3436 -3410 0
-3387 3436 -3404 0
-3388 3436 -3418 0
-3383 3436 -3398 0
-3386 3436 -3422 0
-3384 3436 -3406 0
-3385 3436 -3415 0
-3381 3436 -3431 0
-3369 -3437 3431 0
-3372 -3437 3404 0
-3371 -3437 3398 0
-3370 -3437 3422 0
-3373 -3437 3406 0
-3453 -3438 3251 0
-3456 -3438 3239 0
-3454 -3438 3236 0
-3457 -3438 3258 0
-3455 -3438 3250 0
-3369 3439 -3419 0
-3373 3439 -3394 0
-3370 3439 -3395 0
-3371 3439 -3411 0
-3372 3439 -3426 0
-3378 -3440 3420 0
-3377 -3440 3394 0
-3379 -3440 3395 0
-3375 -3440 3414 0
-3374 -3440 3419 0
-3376 -3440 3411 0
-3380 -3440 3401 0
-3449 -3441 3420 0
-3448 -3441 3394 0
-3450 -3441 3395 0
-3446 -3441 3414 0
-3445 -3441 3419 0
-3447 -3441 3411 0
-3451 -3441 3426 0
-3452 -3441 3401 0
-3372 -3381 -3442 3409 0
-3372 -3386 -3442 3417 0
-3372 -3382 -3442 3396 0
-3370 -3385 -3442 3397 0
-3372 -3388 -3442 3399 0
-3369 -3382 -3442 3400 0
-3371 -3382 -3442 3412 0
-3373 -3385 -3442 3428 0
-3371 -3388 -3442 3402 0
-3372 -3384 -3442 3403 0
-3371 -3385 -3442 3421 0
-3369 -3385 -3442 3413 0
-3373 -3386 -3442 3405 0
-3373 -3382 -3442 3429 0
-3369 -3386 -3442 3430 0
-3372 -3383 -3442 3423 0
-3370 -3382 -3442 3424 0
-3373 -3381 -3442 3407 0
-3373 -3383 -3442 3425 0
-3370 -3388 -3442 3416 0
-3373 -3388 -3442 3408 0
-3372 -3385 -3442 3427 0
-3369 -3388 -3442 3432 0
-3370 -3383 -3442 3433 0
-3369 -3383 -3442 3434 0
-3372 -3374 3443 -3409 0
-3372 -3379 3443 -3417 0
-3372 -3375 3443 -3396 0
-3370 -3378 3443 -3397 0
-3372 -3380 3443 -3399 0
-3369 -3375 3443 -3400 0
-3371 -3375 3443 -3412 0
-3373 -3378 3443 -3428 0
-3371 -3380 3443 -3402 0
-3372 -3377 3443 -3403 0
-3371 -3378 3443 -3421 0
-3369 -3378 3443 -3413 0
-3373 -3379 3443 -3405 0
-3373 -3375 3443 -3429 0
-3369 -3379 3443 -3430 0
-3372 -3376 3443 -3423 0
-3370 -3375 3443 -3424 0
-3373 -3374 3443 -3407 0
-3373 -3376 3443 -3425 0
-3370 -3380 3443 -3416 0
-3373 -3380 3443 -3408 0
-3372 -3378 3443 -3427 0
-3369 -3380 3443 -3432 0
-3370 -3376 3443 -3433 0
-3369 -3376 3443 -3434 0
-3453 -3444 3419 0
-3457 -3444 3394 0
-3454 -3444 3395 0
-3455 -3444 3411 0
-3456 -3444 3426 0
-3363 3440 0
-3458 3369 -3374 0
-3458 -3369 3374 0
-3458 3370 -3379 0
-3458 -3370 3379 0
-3458 3371 -3376 0
-3458 -3371 3376 0
-3458 3373 -3377 0
-3458 -3373 3377 0
-3369 -3374 3458 0
-3370 -3379 3458 0
-3371 -3376 3458 0
-3373 -3377 3458 0
-3372 -3458 0
-3378 -3458 0
-3375 -3458 0
-3380 -3458 0
-3363 -3439 3458 0
-3363 3437 0
-3363 3442 0
-3459 3381 -3374 0
-3459 -3381 3374 0
-3459 3382 -3375 0
-3459 -3382 3375 0
-3459 3383 -3376 0
-3459 -3383 3376 0
-3459 3384 -3377 0
-3459 -3384 3377 0
-3459 3385 -3378 0
-3459 -3385 3378 0
-3459 3386 -3379 0
-3459 -3386 3379 0
-3459 3388 -3380 0
-3459 -3388 3380 0
-3381 -3374 3459 0
-3382 -3375 3459 0
-3383 -3376 3459 0
-3384 -3377 3459 0
-3385 -3378 3459 0
-3386 -3379 3459 0
-3388 -3380 3459 0
-3387 -3459 0
-3460 3381 -3369 0
-3460 -3381 3369 0
-3460 3386 -3370 0
-3460 -3386 3370 0
-3460 3383 -3371 0
-3460 -3383 3371 0
-3460 3387 -3372 0
-3460 -3387 3372 0
-3460 3384 -3373 0
-3460 -3384 3373 0
-3381 -3369 3460 0
-3386 -3370 3460 0
-3383 -3371 3460 0
-3387 -3372 3460 0
-3384 -3373 3460 0
-3385 -3460 0
-3382 -3460 0
-3388 -3460 0
-3363 -3436 3460 0
-3461 3374 -3381 0
-3461 -3374 3381 0
-3461 3375 -3382 0
-3461 -3375 3382 0
-3461 3376 -3383 0
-3461 -3376 3383 0
-3461 3377 -3384 0
-3461 -3377 3384 0
-3461 3378 -3385 0
-3461 -3378 3385 0
-3461 3379 -3386 0
-3461 -3379 3386 0
-3461 3380 -3388 0
-3461 -3380 3388 0
-3374 -3381 3461 0
-3375 -3382 3461 0
-3376 -3383 3461 0
-3377 -3384 3461 0
-3378 -3385 3461 0
-3379 -3386 3461 0
-3380 -3388 3461 0
-3387 -3461 0
-3363 -3443 3461 0
-3390 -3457 -3451 0
-3390 -3457 -3448 0
-3390 -3453 -3445 0
-3390 -3453 -3451 0
-3390 -3453 -3448 0
-3390 -3454 -3450 0
-3390 -3454 -3445 0
-3390 -3454 -3451 0
-3390 -3454 -3448 0
-3390 -3456 -3451 0
-3390 -3455 -3450 0
-3390 -3455 -3445 0
-3390 -3455 -3451 0
-3390 -3455 -3448 0
-3390 -3455 -3447 0
-3391 -3457 -3451 0
-3391 -3457 -3448 0
-3391 -3453 -3445 0
-3391 -3453 -3451 0
-3391 -3453 -3448 0
-3391 -3454 -3450 0
-3391 -3454 -3445 0
-3391 -3454 -3451 0
-3391 -3454 -3448 0
-3391 -3456 -3451 0
-3391 -3455 -3450 0
-3391 -3455 -3445 0
-3391 -3455 -3451 0
-3391 -3455 -3448 0
-3391 -3455 -3447 0
-3224 3390 3391 3392 0
-3223 3389 0
-3390 3224 0
-3391 3224 0
-3392 3224 0
-3389 3223 0
-3394 151 -3393 0
3394 -151 -3393 0
-3395 152 -3393 0
3395 -152 -3393 0
-3396 154 -3393 0
3396 -154 -3393 0
-3397 155 -3393 0
3397 -155 -3393 0
-3398 385 -3393 0
3398 -385 -3393 0
-3399 156 -3393 0
3399 -156 -3393 0
-3400 158 -3393 0
3400 -158 -3393 0
-3401 159 -3393 0
3401 -159 -3393 0
-3402 160 -3393 0
3402 -160 -3393 0
-3232 602 -3393 0
3232 -602 -3393 0
-3403 10 -3393 0
3403 -10 -3393 0
-3404 162 -3393 0
3404 -162 -3393 0
-3405 163 -3393 0
3405 -163 -3393 0
-3236 270 -3393 0
3236 -270 -3393 0
-3406 386 -3393 0
3406 -386 -3393 0
-3407 11 -3393 0
3407 -11 -3393 0
-3239 271 -3393 0
3239 -271 -3393 0
-3408 167 -3393 0
3408 -167 -3393 0
-3409 170 -3393 0
3409 -170 -3393 0
-3410 171 -3393 0
3410 -171 -3393 0
-3411 172 -3393 0
3411 -172 -3393 0
-3243 273 -3393 0
3243 -273 -3393 0
-3412 12 -3393 0
3412 -12 -3393 0
-3413 174 -3393 0
3413 -174 -3393 0
-3414 274 -3393 0
3414 -274 -3393 0
-3415 387 -3393 0
3415 -387 -3393 0
-3416 176 -3393 0
3416 -176 -3393 0
-3417 153 -3393 0
3417 -153 -3393 0
-3418 388 -3393 0
3418 -388 -3393 0
-3419 157 -3393 0
3419 -157 -3393 0
-3250 267 -3393 0
3250 -267 -3393 0
-3420 268 -3393 0
3420 -268 -3393 0
-3251 269 -3393 0
3251 -269 -3393 0
-3421 161 -3393 0
3421 -161 -3393 0
-3422 389 -3393 0
3422 -389 -3393 0
-3423 164 -3393 0
3423 -164 -3393 0
-3424 165 -3393 0
3424 -165 -3393 0
-3425 166 -3393 0
3425 -166 -3393 0
-3426 168 -3393 0
3426 -168 -3393 0
-3427 169 -3393 0
3427 -169 -3393 0
-3258 272 -3393 0
3258 -272 -3393 0
-3428 173 -3393 0
3428 -173 -3393 0
-3429 175 -3393 0
3429 -175 -3393 0
-3430 13 -3393 0
3430 -13 -3393 0
-3262 603 -3393 0
3262 -603 -3393 0
-3431 390 -3393 0
3431 -390 -3393 0
-3432 177 -3393 0
3432 -177 -3393 0
-3433 14 -3393 0
3433 -14 -3393 0
-3434 178 -3393 0
3434 -178 -3393 0
-3279 3462 0
-3462 3279 0
a 3393 0
